--
&control
    calculation     = 'scf'
    prefix          = 'bn'
    restart_mode    = 'from_scratch'
    pseudo_dir      = '../../../../../'
    outdir          = './'
    tstress         = .true.
    tprnfor         = .true.
    etot_conv_thr = 1.0D-7
    forc_conv_thr = 1.0D-6
 /
 &system
    ibrav           = 0
    nat             = 12
    ntyp            = 2
    ecutwfc         = 40
 /
 &electrons
    diagonalization = 'david'
    mixing_beta     = 0.7
    conv_thr        = 1.0d-13
 /
ATOMIC_SPECIES
  B  10.811   B-PBE.upf
  N  14.0067  N-PBE.upf
K_POINTS automatic
4 4 4 0 0 0

 CELL_PARAMETERS bohr
  -3.4165000184171670       -3.4165000184171670        6.8330000368343340
  -6.8330000368343340        3.4165000184171670        3.4165000184171670
  -6.8330000368343340       -3.4165000184171670       -3.4165000184171670

 ATOMIC_POSITIONS bohr
 B        -6.932421246      -0.028007350       6.906215007
 B       -10.283788687      -0.080668864       3.446964580
 B        -6.893927607      -3.486750370       3.586712187
 B        -3.568908479      -0.013261448       3.289735308
 B       -10.071464149      -3.420739259       6.768986081
 B       -16.808828598      -3.351889969       6.541933095
 N       -11.930073271      -1.729024559       5.079078997
 N        -8.571227289       1.546438058       5.256781795
 N        -5.158109591      -1.777414531       5.148311574
 N        -8.478754525      -1.615190446       1.791799390
 N        -8.610320173      -1.610837798       8.536099600
 N        -8.579798086      -4.961728101       5.096937355
